Comps = {frontend0, frontend1, backend0, backend1, database0, database1};
mustComps = {frontend0, frontend1};
Flavs = {tiny, medium, large};
Nodes = {n1, n2, n3};
CRes = {CPU, RAM, storage, bwIn, bwOut};
NRes = {ssl, fwall, encr, avail, latency};
Flav = [{medium, large}, {medium, large}, {tiny, medium, large}, {tiny, medium, large}, {large}, {large}];
Uses = array2d(CompFlavs, CompFlavs, [
	0,0,0,0,0,0,0,1,0,0,0,0,
	0,0,0,0,0,0,0,1,0,0,0,0,
	0,0,0,0,0,0,0,1,0,0,0,0,
	0,0,0,0,0,0,0,1,0,0,0,0,
	0,0,0,0,0,0,0,0,0,0,0,0,
	0,0,0,0,0,0,0,0,0,1,0,0,
	0,0,0,0,0,0,0,0,0,1,0,0,
	0,0,0,0,0,0,0,0,0,0,0,0,
	0,0,0,0,0,0,0,0,0,1,0,0,
	0,0,0,0,0,0,0,0,0,1,0,0,
	0,0,0,0,0,0,0,0,0,0,0,0,
	0,0,0,0,0,0,0,0,0,0,0,0,
]);
mayUse = array2d(Comps, CompFlavs, [
	0,0,0,0,0,0,0,0,0,0,0,0,
	0,0,0,0,0,0,0,0,0,0,0,0,
	0,0,0,0,0,0,0,0,0,0,0,0,
	1,1,1,1,0,1,1,0,1,1,0,0,
	0,0,0,0,0,0,0,0,0,0,0,0,
	0,0,0,0,0,0,0,0,0,0,0,0,
]);
MIN_RBOUNDS = 0;
MAX_RBOUNDS = 1000000;

worstBounds = [0, 0, 0, 0, 0, 0, 0, 0, 0, MAX_RBOUNDS];
bestBounds = [MAX_RBOUNDS - i | i in worstBounds];

comReq = array2d(CompFlavs, Res, [
  4, 275, 470, 348, 366, 1, 0, 0, 95, MAX_RBOUNDS,
  2, 476, 367, 254, 847, 1, 0, 0, 95, MAX_RBOUNDS,
  4, 253, 229, 806, 573, 0, 1, 1, 95, MAX_RBOUNDS,
  4, 335, 224, 218, 755, 1, 1, 1, 96, MAX_RBOUNDS,
  2, 451, 497, 337, 653, 1, 0, 0, 95, MAX_RBOUNDS,
  2, 456, 415, 975, 831, 1, 1, 0, 96, MAX_RBOUNDS,
  2, 275, 226, 855, 374, 1, 0, 1, 97, MAX_RBOUNDS,
  2, 310, 436, 579, 627, 1, 0, 0, 97, MAX_RBOUNDS,
  4, 309, 360, 463, 520, 1, 0, 0, 96, MAX_RBOUNDS,
  2, 400, 398, 503, 337, 1, 1, 1, 96, MAX_RBOUNDS,
  2, 456, 497, 550, 693, 1, 1, 1, 96, MAX_RBOUNDS,
  8, 237, 263, 422, 457, 1, 1, 0, 96, MAX_RBOUNDS,
]);

nodeCap = array2d(Nodes0, Res, [bestBounds[r] | r in Res] ++ [
  32, 98604, 269453, 24857, 16273, 1, 0, 1, 98, 0,
  32, 107498, 978984, 20262, 12155, 1, 1, 1, 98, 0,
  16, 23841, 418451, 18107, 20478, 1, 1, 1, 99, 0,
]);

cost = array2d(Nodes0, Res, [
  0, 0, 0, 0, 0, 0, 0, 0, 0, 0, % no node
  10, 10, 19, 0, 0, 0, 0, 0, 0, 0,
  17, 9, 17, 0, 0, 0, 0, 0, 0, 0,
  14, 10, 16, 0, 0, 0, 0, 0, 0, 0,
]);

carb = array2d(Nodes0, Res, [
  0, 0, 0, 0, 0, 0, 0, 0, 0, 0, % no node
  37, 11, 19, 0, 0, 0, 0, 0, 0, 0,
  40, 5, 45, 0, 0, 0, 0, 0, 0, 0,
  30, 45, 17, 0, 0, 0, 0, 0, 0, 0,
]);

costBudget = 51498;
carbBudget = 38284;

depReq = array4d(Comps, Flavs, Comps, Res, [
  if c1 = frontend0 /\ c2 = backend1 /\ r = N(avail) then
    97
  elseif c1 = frontend1 /\ c2 = backend1 /\ r = N(avail) then
    96
  elseif c1 = frontend1 /\ c2 = backend0 /\ r = N(avail) then
    97
  elseif c1 = frontend0 /\ c2 = backend0 /\ r = N(avail) then
    96
  else
    worstBounds[r]
  endif | c1 in Comps, i in Flavs, c2 in Comps, r in Res]);

linkCap = array3d(Nodes0, Nodes0, Res, [
  if ni = 0 \/ nj = 0 then
    bestBounds[r]
  elseif ni = nj /\ r = N(avail) then
    nodeCap[ni,r]
  elseif {ni, nj} = {n1, n3} /\ r = N(avail) then
    98
  elseif {ni, nj} = {n1, n2} /\ r = N(avail) then
    98
  elseif {ni, nj} = {n2, n3} /\ r = N(avail) then
    99
  else
    worstBounds[r]
  endif | ni in Nodes0, nj in Nodes0, r in Res]);

imp = array2d(Comps, Flavs, [
  3, 5, 6,
  5, 6, 8,
  3, 4, 9,
  4, 7, 8,
  3, 5, 8,
  2, 3, 5,
]);

